15
2 0 5
4 2 4
5 0 6
5 2 1
6 1 3
6 4 4
6 5 5
7 0 6
7 1 2
7 5 6
8 1 2
8 3 4
8 6 6
8 7 4
9 0 2
9 1 1
9 2 1
9 6 1
9 8 2
10 1 3
10 2 3
10 4 2
10 6 3
10 7 4
10 8 5
11 3 3
11 4 4
11 6 6
11 7 6
11 9 1
11 10 3
12 0 3
12 3 4
12 11 4
13 1 1
13 3 4
13 7 6
14 0 1
14 1 6
14 2 1
14 5 3
14 7 6
14 9 2
14 11 2
14 12 1
